results_rootrelaxation/bin012_060_026.srr.sol
solution status: optimal solution found
objective value:                     1.58692810457516
_var285_                           0.0483660130718956 	(obj:0)
_var715_                            0.190849673202614 	(obj:0)
_var721_                            0.151633986928105 	(obj:0)
_var727_                             0.29281045751634 	(obj:0)
_var738_                            0.304575163398693 	(obj:0)
_var757_                            0.133333333333333 	(obj:1)
_var759_                           0.0431372549019609 	(obj:0)
_var764_                            0.573856209150327 	(obj:0)
_var776_                          0.00915032679738559 	(obj:1)
_var791_                            0.173856209150326 	(obj:0)
_var800_                            0.128104575163399 	(obj:0)
_var804_                           0.0784313725490194 	(obj:1)
_var806_                            0.373856209150327 	(obj:0)
_var815_                           0.0549019607843134 	(obj:1)
_var821_                            0.233986928104575 	(obj:0)
_var829_                            0.235294117647059 	(obj:0)
_var831_                            0.465359477124183 	(obj:0)
_var835_                             0.12156862745098 	(obj:0)
_var845_                             0.25359477124183 	(obj:1)
_var849_                          0.00130718954248338 	(obj:0)
_var850_                            0.233986928104575 	(obj:0)
_var860_                           0.0549019607843142 	(obj:0)
_var861_                            0.252287581699346 	(obj:0)
_var862_                            0.380392156862746 	(obj:0)
_var863_                            0.339869281045752 	(obj:0)
_var868_                            0.312418300653595 	(obj:0)
_var869_                            0.383006535947713 	(obj:0)
_var871_                            0.283660130718954 	(obj:0)
_var873_                            0.149019607843137 	(obj:0)
_var875_                           0.0823529411764702 	(obj:0)
_var880_                            0.383006535947713 	(obj:0)
_var884_                           0.0745098039215688 	(obj:0)
_var888_                            0.420915032679738 	(obj:0)
_var892_                           0.0758169934640528 	(obj:1)
_var894_                            0.139869281045752 	(obj:0)
_var895_                            0.037908496732026 	(obj:0)
_var896_                            0.026143790849673 	(obj:0)
_var897_                            0.291503267973856 	(obj:0)
_var898_                             0.29281045751634 	(obj:0)
_var899_                           0.0797385620915036 	(obj:0)
_var903_                             0.29673202614379 	(obj:1)
_var905_                            0.122875816993463 	(obj:0)
_var906_                          0.00784313725490188 	(obj:0)
_var907_                            0.133333333333333 	(obj:0)
_var908_                           0.0862745098039218 	(obj:0)
_var909_                            0.311111111111111 	(obj:1)
_var910_                            0.343790849673203 	(obj:0)
_var912_                            0.154248366013072 	(obj:1)
_var915_                            0.339869281045752 	(obj:0)
_var916_                            0.070588235294118 	(obj:0)
_var917_                            0.112418300653595 	(obj:1)
_var918_                           0.0392156862745097 	(obj:1)
_var919_                            0.230065359477125 	(obj:0)
_var921_                           0.0169934640522879 	(obj:1)
_var922_                            0.133333333333333 	(obj:0)
_var924_                            0.133333333333333 	(obj:0)
_var926_                           0.0810457516339864 	(obj:0)
_var927_                            0.130718954248366 	(obj:0)
_var928_                            0.043137254901961 	(obj:0)
_var929_                            0.035294117647059 	(obj:1)
_var930_                            0.015686274509804 	(obj:1)
